<?xml version = "1.0" standalone="yes"?>
<!-- This file has been generated by DOcplex version 2.23.222  -->
<CPLEXSolution version="1.0">
 <header
   problemName="CVRP"
   objectiveValue="7661.22"
  />
 <variables>
  <variable name="x_0_1" index="0" value="1.00000"/>
  <variable name="x_0_2" index="1" value="1.00000"/>
  <variable name="x_0_3" index="2" value="1.00000"/>
  <variable name="x_0_5" index="4" value="1.00000"/>
  <variable name="x_0_7" index="6" value="1.00000"/>
  <variable name="x_0_9" index="8" value="1.00000"/>
  <variable name="x_0_11" index="10" value="1.00000"/>
  <variable name="x_1_0" index="12" value="1.00000"/>
  <variable name="x_2_0" index="24" value="1.00000"/>
  <variable name="x_3_6" index="41" value="1.00000"/>
  <variable name="x_4_12" index="59" value="1.00000"/>
  <variable name="x_5_4" index="64" value="1.00000"/>
  <variable name="x_6_0" index="72" value="1.00000"/>
  <variable name="x_7_0" index="84" value="1.00000"/>
  <variable name="x_8_0" index="96" value="1.00000"/>
  <variable name="x_9_0" index="108" value="1.00000"/>
  <variable name="x_10_8" index="128" value="1.00000"/>
  <variable name="x_11_10" index="142" value="1.00000"/>
  <variable name="x_12_0" index="144" value="1.00000"/>
  <variable name="u_1" index="156" value="23.00000"/>
  <variable name="u_2" index="157" value="23.00000"/>
  <variable name="u_3" index="158" value="18.00000"/>
  <variable name="u_4" index="159" value="14.00000"/>
  <variable name="u_5" index="160" value="4.00000"/>
  <variable name="u_6" index="161" value="20.00000"/>
  <variable name="u_7" index="162" value="22.00000"/>
  <variable name="u_8" index="163" value="22.00000"/>
  <variable name="u_9" index="164" value="22.00000"/>
  <variable name="u_10" index="165" value="10.00000"/>
  <variable name="u_11" index="166" value="4.00000"/>
  <variable name="u_12" index="167" value="22.00000"/>
 </variables>
</CPLEXSolution>
